benchmark/results/graph__15-1000-0.10-02_12/graph__15-1000-0.10-02_12_QuintonOs_Benders_sub.lp
\ This file has been generated by DOcplex
\ ENCODING=ISO-8859-1
\Problem name: Quinton Bounded Benders_dual_sub

Minimize
 obj: 0.000951474786 pi_nr_a0 + 0.001577287066 pi_nr_a1
      + 0.001001001001 pi_nr_a2 + 0.000781860829 pi_nr_a3
      + 0.002000000000 pi_nr_a4 + 0.001976284585 pi_nr_a5
      + 0.001049317943 pi_nr_a6 + 0.001055966209 pi_nr_a7
      + 0.000917431193 pi_nr_a8 + 0.001169590643 pi_nr_a9
      + 0.003164556962 pi_nr_a10 + 0.001686340641 pi_nr_a11
      + 0.001364256480 pi_nr_a12 + 0.001652892562 pi_nr_a13
      + 0.001103752759 pi_nr_a14 + pi_p_a0_a2 + pi_p_a0_a12 + pi_p_a6_a6
      + pi_p_a14_a14 + 2559 pi_d_a0_a1_proc_0 + pi_d_a0_a1_proc_1
      + 2558 pi_d_a1_a0_proc_0 + 1296 pi_d_a0_a2_proc_0 + 1296 pi_d_a0_a2_proc_1
      + 1263 pi_d_a2_a0_proc_0 + 1263 pi_d_a2_a0_proc_1 + pi_d_a0_a3_proc_1
      + 1296 pi_d_a0_a4_proc_0 + 1263 pi_d_a4_a0_proc_0 + 2559 pi_d_a0_a5_proc_0
      + pi_d_a0_a5_proc_1 + 2558 pi_d_a5_a0_proc_0 + 1296 pi_d_a0_a6_proc_0
      + 1263 pi_d_a6_a0_proc_0 + 2559 pi_d_a0_a7_proc_0 + pi_d_a0_a7_proc_1
      + 2558 pi_d_a7_a0_proc_0 + 1263 pi_d_a0_a8_proc_0 + 1263 pi_d_a0_a8_proc_1
      + 1296 pi_d_a8_a0_proc_0 + 1296 pi_d_a8_a0_proc_1 + 1263 pi_d_a0_a9_proc_0
      + 1296 pi_d_a9_a0_proc_0 + 1296 pi_d_a0_a10_proc_0
      + 1296 pi_d_a0_a10_proc_1 + 1263 pi_d_a10_a0_proc_0
      + 1263 pi_d_a10_a0_proc_1 + 2559 pi_d_a0_a11_proc_0 + pi_d_a0_a11_proc_1
      + 2558 pi_d_a11_a0_proc_0 + pi_d_a0_a12_proc_1 + pi_d_a13_a0_proc_1
      + 1263 pi_d_a0_a14_proc_0 + 1296 pi_d_a14_a0_proc_0
      + 1296 pi_d_a1_a2_proc_0 + 1296 pi_d_a1_a2_proc_1 + 1263 pi_d_a2_a1_proc_0
      + 1263 pi_d_a2_a1_proc_1 + pi_d_a1_a3_proc_1 + 1296 pi_d_a1_a4_proc_0
      + 1263 pi_d_a4_a1_proc_0 + 2559 pi_d_a1_a5_proc_0 + pi_d_a1_a5_proc_1
      + 2558 pi_d_a5_a1_proc_0 + 1296 pi_d_a1_a6_proc_0 + 1263 pi_d_a6_a1_proc_0
      + 2558 pi_d_a1_a7_proc_0 + 2559 pi_d_a7_a1_proc_0 + pi_d_a7_a1_proc_1
      + 1263 pi_d_a1_a8_proc_0 + 1263 pi_d_a1_a8_proc_1 + 1296 pi_d_a8_a1_proc_0
      + 1296 pi_d_a8_a1_proc_1 + 1296 pi_d_a1_a9_proc_0 + 1263 pi_d_a9_a1_proc_0
      + 1296 pi_d_a1_a10_proc_0 + 1296 pi_d_a1_a10_proc_1
      + 1263 pi_d_a10_a1_proc_0 + 1263 pi_d_a10_a1_proc_1
      + 2559 pi_d_a1_a11_proc_0 + pi_d_a1_a11_proc_1 + 2558 pi_d_a11_a1_proc_0
      + pi_d_a12_a1_proc_1 + pi_d_a13_a1_proc_1 + 1296 pi_d_a1_a14_proc_0
      + 1263 pi_d_a14_a1_proc_0 + 1296 pi_d_a2_a3_proc_1
      + 1263 pi_d_a3_a2_proc_1 - 16 pi_d_a2_a4_proc_0 + 17 pi_d_a4_a2_proc_0
      + 1296 pi_d_a2_a5_proc_0 + 1296 pi_d_a2_a5_proc_1 + 1263 pi_d_a5_a2_proc_0
      + 1263 pi_d_a5_a2_proc_1 + pi_d_a6_a2_proc_0 + 1296 pi_d_a2_a7_proc_0
      + 1296 pi_d_a2_a7_proc_1 + 1263 pi_d_a7_a2_proc_0 + 1263 pi_d_a7_a2_proc_1
      + 2558 pi_d_a2_a8_proc_1 + pi_d_a8_a2_proc_0 + 2559 pi_d_a8_a2_proc_1
      - 16 pi_d_a2_a9_proc_0 + 17 pi_d_a9_a2_proc_0 + pi_d_a2_a10_proc_0
      + 2559 pi_d_a2_a10_proc_1 + 2558 pi_d_a10_a2_proc_1
      + 1296 pi_d_a2_a11_proc_0 + 1296 pi_d_a2_a11_proc_1
      + 1263 pi_d_a11_a2_proc_0 + 1263 pi_d_a11_a2_proc_1
      + 1296 pi_d_a2_a12_proc_1 + 1263 pi_d_a12_a2_proc_1
      + 1296 pi_d_a2_a13_proc_1 + 1263 pi_d_a13_a2_proc_1 + pi_d_a2_a14_proc_0
      + pi_d_a3_a5_proc_1 + pi_d_a7_a3_proc_1 + 1296 pi_d_a3_a8_proc_1
      + 1263 pi_d_a8_a3_proc_1 + 1296 pi_d_a3_a10_proc_1
      + 1263 pi_d_a10_a3_proc_1 + pi_d_a3_a11_proc_1 + pi_d_a12_a3_proc_1
      + pi_d_a13_a3_proc_1 + 1296 pi_d_a4_a5_proc_0 + 1263 pi_d_a5_a4_proc_0
      + 17 pi_d_a4_a6_proc_0 - 16 pi_d_a6_a4_proc_0 + 1296 pi_d_a4_a7_proc_0
      + 1263 pi_d_a7_a4_proc_0 + 16 pi_d_a4_a8_proc_0 - 15 pi_d_a8_a4_proc_0
      + pi_d_a9_a4_proc_0 + 17 pi_d_a4_a10_proc_0 - 16 pi_d_a10_a4_proc_0
      + 1296 pi_d_a4_a11_proc_0 + 1263 pi_d_a11_a4_proc_0
      + 17 pi_d_a4_a14_proc_0 - 16 pi_d_a14_a4_proc_0 + 1296 pi_d_a5_a6_proc_0
      + 1263 pi_d_a6_a5_proc_0 + 2558 pi_d_a5_a7_proc_0 + 2559 pi_d_a7_a5_proc_0
      + pi_d_a7_a5_proc_1 + 1296 pi_d_a5_a8_proc_0 + 1296 pi_d_a5_a8_proc_1
      + 1263 pi_d_a8_a5_proc_0 + 1263 pi_d_a8_a5_proc_1 + 1296 pi_d_a5_a9_proc_0
      + 1263 pi_d_a9_a5_proc_0 + 1296 pi_d_a5_a10_proc_0
      + 1296 pi_d_a5_a10_proc_1 + 1263 pi_d_a10_a5_proc_0
      + 1263 pi_d_a10_a5_proc_1 + 2558 pi_d_a5_a11_proc_0
      + 2559 pi_d_a11_a5_proc_0 + pi_d_a11_a5_proc_1 + pi_d_a12_a5_proc_1
      + pi_d_a13_a5_proc_1 + 1296 pi_d_a5_a14_proc_0 + 1263 pi_d_a14_a5_proc_0
      + 1296 pi_d_a6_a7_proc_0 + 1263 pi_d_a7_a6_proc_0 + pi_d_a8_a6_proc_0
      - 16 pi_d_a6_a9_proc_0 + 17 pi_d_a9_a6_proc_0 + pi_d_a6_a10_proc_0
      + 1296 pi_d_a6_a11_proc_0 + 1263 pi_d_a11_a6_proc_0 + pi_d_a6_a14_proc_0
      + 1296 pi_d_a7_a8_proc_0 + 1296 pi_d_a7_a8_proc_1 + 1263 pi_d_a8_a7_proc_0
      + 1263 pi_d_a8_a7_proc_1 + 1296 pi_d_a7_a9_proc_0 + 1263 pi_d_a9_a7_proc_0
      + 1296 pi_d_a7_a10_proc_0 + 1296 pi_d_a7_a10_proc_1
      + 1263 pi_d_a10_a7_proc_0 + 1263 pi_d_a10_a7_proc_1
      + 2559 pi_d_a7_a11_proc_0 + pi_d_a7_a11_proc_1 + 2558 pi_d_a11_a7_proc_0
      + pi_d_a7_a12_proc_1 + pi_d_a13_a7_proc_1 + 1296 pi_d_a7_a14_proc_0
      + 1263 pi_d_a14_a7_proc_0 - 16 pi_d_a8_a9_proc_0 + 17 pi_d_a9_a8_proc_0
      + pi_d_a8_a10_proc_0 + 2559 pi_d_a8_a10_proc_1 + 2558 pi_d_a10_a8_proc_1
      + 1296 pi_d_a8_a11_proc_0 + 1296 pi_d_a8_a11_proc_1
      + 1263 pi_d_a11_a8_proc_0 + 1263 pi_d_a11_a8_proc_1
      + 1296 pi_d_a8_a12_proc_1 + 1263 pi_d_a12_a8_proc_1
      + 1296 pi_d_a8_a13_proc_1 + 1263 pi_d_a13_a8_proc_1 + pi_d_a8_a14_proc_0
      + 17 pi_d_a9_a10_proc_0 - 16 pi_d_a10_a9_proc_0 + 1296 pi_d_a9_a11_proc_0
      + 1263 pi_d_a11_a9_proc_0 + 17 pi_d_a9_a14_proc_0 - 16 pi_d_a14_a9_proc_0
      + 1263 pi_d_a10_a11_proc_0 + 1263 pi_d_a10_a11_proc_1
      + 1296 pi_d_a11_a10_proc_0 + 1296 pi_d_a11_a10_proc_1
      + 1296 pi_d_a10_a12_proc_1 + 1263 pi_d_a12_a10_proc_1
      + 1263 pi_d_a10_a13_proc_1 + 1296 pi_d_a13_a10_proc_1
      + pi_d_a10_a14_proc_0 + pi_d_a12_a11_proc_1 + pi_d_a13_a11_proc_1
      + 1296 pi_d_a11_a14_proc_0 + 1263 pi_d_a14_a11_proc_0
      + pi_d_a13_a12_proc_1 + pi_y2_a0_proc_1 + pi_y2_a1_proc_1
      + pi_y2_a2_proc_0 + pi_y2_a3_proc_1 + pi_y2_a4_proc_0 + pi_y2_a5_proc_1
      + pi_y2_a6_proc_0 + pi_y2_a7_proc_1 + pi_y2_a8_proc_0 + pi_y2_a9_proc_0
      + pi_y2_a10_proc_0 + pi_y2_a11_proc_1 + pi_y2_a12_proc_1
      + pi_y2_a13_proc_1 + pi_y2_a14_proc_0
Subject To
 c1: pi_nr_a0 + pi_nr_a1 + pi_nr_a2 + pi_nr_a3 + pi_nr_a4 + pi_nr_a5 + pi_nr_a6
     + pi_nr_a7 + pi_nr_a8 + pi_nr_a9 + pi_nr_a10 + pi_nr_a11 + pi_nr_a12
     + pi_nr_a13 + pi_nr_a14 - pi_y1_a0 - pi_y1_a1 - pi_y1_a2 - pi_y1_a3
     - pi_y1_a4 - pi_y1_a5 - pi_y1_a6 - pi_y1_a7 - pi_y1_a8 - pi_y1_a9
     - pi_y1_a10 - pi_y1_a11 - pi_y1_a12 - pi_y1_a13 - pi_y1_a14 >= 1
 c2: - pi_p_a1_a0 + pi_p_a0_a2 - pi_p_a7_a0 + pi_p_a0_a12 - pi_p_a12_a0
     + pi_d_a0_a1_proc_0 + pi_d_a0_a1_proc_1 - pi_d_a1_a0_proc_0
     - pi_d_a1_a0_proc_1 + pi_d_a0_a2_proc_0 + pi_d_a0_a2_proc_1
     - pi_d_a2_a0_proc_0 - pi_d_a2_a0_proc_1 + pi_d_a0_a3_proc_1
     - pi_d_a3_a0_proc_1 + pi_d_a0_a4_proc_0 - pi_d_a4_a0_proc_0
     + pi_d_a0_a5_proc_0 + pi_d_a0_a5_proc_1 - pi_d_a5_a0_proc_0
     - pi_d_a5_a0_proc_1 + pi_d_a0_a6_proc_0 - pi_d_a6_a0_proc_0
     + pi_d_a0_a7_proc_0 + pi_d_a0_a7_proc_1 - pi_d_a7_a0_proc_0
     - pi_d_a7_a0_proc_1 + pi_d_a0_a8_proc_0 + pi_d_a0_a8_proc_1
     - pi_d_a8_a0_proc_0 - pi_d_a8_a0_proc_1 + pi_d_a0_a9_proc_0
     - pi_d_a9_a0_proc_0 + pi_d_a0_a10_proc_0 + pi_d_a0_a10_proc_1
     - pi_d_a10_a0_proc_0 - pi_d_a10_a0_proc_1 + pi_d_a0_a11_proc_0
     + pi_d_a0_a11_proc_1 - pi_d_a11_a0_proc_0 - pi_d_a11_a0_proc_1
     + pi_d_a0_a12_proc_1 - pi_d_a12_a0_proc_1 + pi_d_a0_a13_proc_1
     - pi_d_a13_a0_proc_1 + pi_d_a0_a14_proc_0 - pi_d_a14_a0_proc_0 >= 0
 c3: 999 pi_p_a0_a2 + 999 pi_p_a0_a12 + 999 pi_d_a0_a1_proc_0
     + 999 pi_d_a0_a2_proc_0 + 999 pi_d_a0_a4_proc_0 + 999 pi_d_a0_a5_proc_0
     + 999 pi_d_a0_a6_proc_0 + 999 pi_d_a0_a7_proc_0 + 999 pi_d_a0_a8_proc_0
     + 999 pi_d_a0_a9_proc_0 + 999 pi_d_a0_a10_proc_0 + 999 pi_d_a0_a11_proc_0
     + 999 pi_d_a0_a14_proc_0 + pi_y1_a0 + pi_y2_a0_proc_0 >= 0
 c4: 1051 pi_p_a0_a2 + 1051 pi_p_a0_a12 + 1051 pi_d_a0_a1_proc_1
     + 1051 pi_d_a0_a2_proc_1 + 1051 pi_d_a0_a3_proc_1 + 1051 pi_d_a0_a5_proc_1
     + 1051 pi_d_a0_a7_proc_1 + 1051 pi_d_a0_a8_proc_1 + 1051 pi_d_a0_a10_proc_1
     + 1051 pi_d_a0_a11_proc_1 + 1051 pi_d_a0_a12_proc_1
     + 1051 pi_d_a0_a13_proc_1 + pi_y1_a0 + pi_y2_a0_proc_1 >= 0
 c5: pi_p_a1_a0 - pi_p_a3_a1 - pi_p_a11_a1 - pi_d_a0_a1_proc_0
     - pi_d_a0_a1_proc_1 + pi_d_a1_a0_proc_0 + pi_d_a1_a0_proc_1
     + pi_d_a1_a2_proc_0 + pi_d_a1_a2_proc_1 - pi_d_a2_a1_proc_0
     - pi_d_a2_a1_proc_1 + pi_d_a1_a3_proc_1 - pi_d_a3_a1_proc_1
     + pi_d_a1_a4_proc_0 - pi_d_a4_a1_proc_0 + pi_d_a1_a5_proc_0
     + pi_d_a1_a5_proc_1 - pi_d_a5_a1_proc_0 - pi_d_a5_a1_proc_1
     + pi_d_a1_a6_proc_0 - pi_d_a6_a1_proc_0 + pi_d_a1_a7_proc_0
     + pi_d_a1_a7_proc_1 - pi_d_a7_a1_proc_0 - pi_d_a7_a1_proc_1
     + pi_d_a1_a8_proc_0 + pi_d_a1_a8_proc_1 - pi_d_a8_a1_proc_0
     - pi_d_a8_a1_proc_1 + pi_d_a1_a9_proc_0 - pi_d_a9_a1_proc_0
     + pi_d_a1_a10_proc_0 + pi_d_a1_a10_proc_1 - pi_d_a10_a1_proc_0
     - pi_d_a10_a1_proc_1 + pi_d_a1_a11_proc_0 + pi_d_a1_a11_proc_1
     - pi_d_a11_a1_proc_0 - pi_d_a11_a1_proc_1 + pi_d_a1_a12_proc_1
     - pi_d_a12_a1_proc_1 + pi_d_a1_a13_proc_1 - pi_d_a13_a1_proc_1
     + pi_d_a1_a14_proc_0 - pi_d_a14_a1_proc_0 >= 0
 c6: 992 pi_p_a1_a0 + 992 pi_d_a1_a0_proc_0 + 992 pi_d_a1_a2_proc_0
     + 992 pi_d_a1_a4_proc_0 + 992 pi_d_a1_a5_proc_0 + 992 pi_d_a1_a6_proc_0
     + 992 pi_d_a1_a7_proc_0 + 992 pi_d_a1_a8_proc_0 + 992 pi_d_a1_a9_proc_0
     + 992 pi_d_a1_a10_proc_0 + 992 pi_d_a1_a11_proc_0 + 992 pi_d_a1_a14_proc_0
     + pi_y1_a1 + pi_y2_a1_proc_0 >= 0
 c7: 634 pi_p_a1_a0 + 634 pi_d_a1_a0_proc_1 + 634 pi_d_a1_a2_proc_1
     + 634 pi_d_a1_a3_proc_1 + 634 pi_d_a1_a5_proc_1 + 634 pi_d_a1_a7_proc_1
     + 634 pi_d_a1_a8_proc_1 + 634 pi_d_a1_a10_proc_1 + 634 pi_d_a1_a11_proc_1
     + 634 pi_d_a1_a12_proc_1 + 634 pi_d_a1_a13_proc_1 + pi_y1_a1
     + pi_y2_a1_proc_1 >= 0
 c8: - pi_p_a0_a2 + pi_p_a2_a4 + pi_p_a2_a5 + pi_p_a2_a11 - pi_d_a0_a2_proc_0
     - pi_d_a0_a2_proc_1 + pi_d_a2_a0_proc_0 + pi_d_a2_a0_proc_1
     - pi_d_a1_a2_proc_0 - pi_d_a1_a2_proc_1 + pi_d_a2_a1_proc_0
     + pi_d_a2_a1_proc_1 + pi_d_a2_a3_proc_1 - pi_d_a3_a2_proc_1
     + pi_d_a2_a4_proc_0 - pi_d_a4_a2_proc_0 + pi_d_a2_a5_proc_0
     + pi_d_a2_a5_proc_1 - pi_d_a5_a2_proc_0 - pi_d_a5_a2_proc_1
     + pi_d_a2_a6_proc_0 - pi_d_a6_a2_proc_0 + pi_d_a2_a7_proc_0
     + pi_d_a2_a7_proc_1 - pi_d_a7_a2_proc_0 - pi_d_a7_a2_proc_1
     + pi_d_a2_a8_proc_0 + pi_d_a2_a8_proc_1 - pi_d_a8_a2_proc_0
     - pi_d_a8_a2_proc_1 + pi_d_a2_a9_proc_0 - pi_d_a9_a2_proc_0
     + pi_d_a2_a10_proc_0 + pi_d_a2_a10_proc_1 - pi_d_a10_a2_proc_0
     - pi_d_a10_a2_proc_1 + pi_d_a2_a11_proc_0 + pi_d_a2_a11_proc_1
     - pi_d_a11_a2_proc_0 - pi_d_a11_a2_proc_1 + pi_d_a2_a12_proc_1
     - pi_d_a12_a2_proc_1 + pi_d_a2_a13_proc_1 - pi_d_a13_a2_proc_1
     + pi_d_a2_a14_proc_0 - pi_d_a14_a2_proc_0 >= 0
 c9: 999 pi_p_a2_a4 + 999 pi_p_a2_a5 + 999 pi_p_a2_a11 + 999 pi_d_a2_a0_proc_0
     + 999 pi_d_a2_a1_proc_0 + 999 pi_d_a2_a4_proc_0 + 999 pi_d_a2_a5_proc_0
     + 999 pi_d_a2_a6_proc_0 + 999 pi_d_a2_a7_proc_0 + 999 pi_d_a2_a8_proc_0
     + 999 pi_d_a2_a9_proc_0 + 999 pi_d_a2_a10_proc_0 + 999 pi_d_a2_a11_proc_0
     + 999 pi_d_a2_a14_proc_0 + pi_y1_a2 + pi_y2_a2_proc_0 >= 0
 c10: 1108 pi_p_a2_a4 + 1108 pi_p_a2_a5 + 1108 pi_p_a2_a11
      + 1108 pi_d_a2_a0_proc_1 + 1108 pi_d_a2_a1_proc_1 + 1108 pi_d_a2_a3_proc_1
      + 1108 pi_d_a2_a5_proc_1 + 1108 pi_d_a2_a7_proc_1 + 1108 pi_d_a2_a8_proc_1
      + 1108 pi_d_a2_a10_proc_1 + 1108 pi_d_a2_a11_proc_1
      + 1108 pi_d_a2_a12_proc_1 + 1108 pi_d_a2_a13_proc_1 + pi_y1_a2
      + pi_y2_a2_proc_1 >= 0
 c11: pi_p_a3_a1 - pi_p_a6_a3 + pi_p_a3_a9 - pi_d_a0_a3_proc_1
      + pi_d_a3_a0_proc_1 - pi_d_a1_a3_proc_1 + pi_d_a3_a1_proc_1
      - pi_d_a2_a3_proc_1 + pi_d_a3_a2_proc_1 + pi_d_a3_a5_proc_1
      - pi_d_a5_a3_proc_1 + pi_d_a3_a7_proc_1 - pi_d_a7_a3_proc_1
      + pi_d_a3_a8_proc_1 - pi_d_a8_a3_proc_1 + pi_d_a3_a10_proc_1
      - pi_d_a10_a3_proc_1 + pi_d_a3_a11_proc_1 - pi_d_a11_a3_proc_1
      + pi_d_a3_a12_proc_1 - pi_d_a12_a3_proc_1 + pi_d_a3_a13_proc_1
      - pi_d_a13_a3_proc_1 >= 0
 c12: 1279 pi_p_a3_a1 + 1279 pi_p_a3_a9 + 1279 pi_d_a3_a0_proc_1
      + 1279 pi_d_a3_a1_proc_1 + 1279 pi_d_a3_a2_proc_1 + 1279 pi_d_a3_a5_proc_1
      + 1279 pi_d_a3_a7_proc_1 + 1279 pi_d_a3_a8_proc_1
      + 1279 pi_d_a3_a10_proc_1 + 1279 pi_d_a3_a11_proc_1
      + 1279 pi_d_a3_a12_proc_1 + 1279 pi_d_a3_a13_proc_1 + pi_y1_a3
      + pi_y2_a3_proc_1 >= 0
 c13: - pi_p_a2_a4 - pi_p_a13_a4 - pi_d_a0_a4_proc_0 + pi_d_a4_a0_proc_0
      - pi_d_a1_a4_proc_0 + pi_d_a4_a1_proc_0 - pi_d_a2_a4_proc_0
      + pi_d_a4_a2_proc_0 + pi_d_a4_a5_proc_0 - pi_d_a5_a4_proc_0
      + pi_d_a4_a6_proc_0 - pi_d_a6_a4_proc_0 + pi_d_a4_a7_proc_0
      - pi_d_a7_a4_proc_0 + pi_d_a4_a8_proc_0 - pi_d_a8_a4_proc_0
      + pi_d_a4_a9_proc_0 - pi_d_a9_a4_proc_0 + pi_d_a4_a10_proc_0
      - pi_d_a10_a4_proc_0 + pi_d_a4_a11_proc_0 - pi_d_a11_a4_proc_0
      + pi_d_a4_a14_proc_0 - pi_d_a14_a4_proc_0 >= 0
 c14: 500 pi_d_a4_a0_proc_0 + 500 pi_d_a4_a1_proc_0 + 500 pi_d_a4_a2_proc_0
      + 500 pi_d_a4_a5_proc_0 + 500 pi_d_a4_a6_proc_0 + 500 pi_d_a4_a7_proc_0
      + 500 pi_d_a4_a8_proc_0 + 500 pi_d_a4_a9_proc_0 + 500 pi_d_a4_a10_proc_0
      + 500 pi_d_a4_a11_proc_0 + 500 pi_d_a4_a14_proc_0 + pi_y1_a4
      + pi_y2_a4_proc_0 >= 0
 c15: - pi_p_a2_a5 + pi_p_a5_a6 + pi_p_a5_a13 - pi_d_a0_a5_proc_0
      - pi_d_a0_a5_proc_1 + pi_d_a5_a0_proc_0 + pi_d_a5_a0_proc_1
      - pi_d_a1_a5_proc_0 - pi_d_a1_a5_proc_1 + pi_d_a5_a1_proc_0
      + pi_d_a5_a1_proc_1 - pi_d_a2_a5_proc_0 - pi_d_a2_a5_proc_1
      + pi_d_a5_a2_proc_0 + pi_d_a5_a2_proc_1 - pi_d_a3_a5_proc_1
      + pi_d_a5_a3_proc_1 - pi_d_a4_a5_proc_0 + pi_d_a5_a4_proc_0
      + pi_d_a5_a6_proc_0 - pi_d_a6_a5_proc_0 + pi_d_a5_a7_proc_0
      + pi_d_a5_a7_proc_1 - pi_d_a7_a5_proc_0 - pi_d_a7_a5_proc_1
      + pi_d_a5_a8_proc_0 + pi_d_a5_a8_proc_1 - pi_d_a8_a5_proc_0
      - pi_d_a8_a5_proc_1 + pi_d_a5_a9_proc_0 - pi_d_a9_a5_proc_0
      + pi_d_a5_a10_proc_0 + pi_d_a5_a10_proc_1 - pi_d_a10_a5_proc_0
      - pi_d_a10_a5_proc_1 + pi_d_a5_a11_proc_0 + pi_d_a5_a11_proc_1
      - pi_d_a11_a5_proc_0 - pi_d_a11_a5_proc_1 + pi_d_a5_a12_proc_1
      - pi_d_a12_a5_proc_1 + pi_d_a5_a13_proc_1 - pi_d_a13_a5_proc_1
      + pi_d_a5_a14_proc_0 - pi_d_a14_a5_proc_0 >= 0
 c16: 1022 pi_p_a5_a6 + 1022 pi_p_a5_a13 + 1022 pi_d_a5_a0_proc_0
      + 1022 pi_d_a5_a1_proc_0 + 1022 pi_d_a5_a2_proc_0 + 1022 pi_d_a5_a4_proc_0
      + 1022 pi_d_a5_a6_proc_0 + 1022 pi_d_a5_a7_proc_0 + 1022 pi_d_a5_a8_proc_0
      + 1022 pi_d_a5_a9_proc_0 + 1022 pi_d_a5_a10_proc_0
      + 1022 pi_d_a5_a11_proc_0 + 1022 pi_d_a5_a14_proc_0 + pi_y1_a5
      + pi_y2_a5_proc_0 >= 0
 c17: 506 pi_p_a5_a6 + 506 pi_p_a5_a13 + 506 pi_d_a5_a0_proc_1
      + 506 pi_d_a5_a1_proc_1 + 506 pi_d_a5_a2_proc_1 + 506 pi_d_a5_a3_proc_1
      + 506 pi_d_a5_a7_proc_1 + 506 pi_d_a5_a8_proc_1 + 506 pi_d_a5_a10_proc_1
      + 506 pi_d_a5_a11_proc_1 + 506 pi_d_a5_a12_proc_1 + 506 pi_d_a5_a13_proc_1
      + pi_y1_a5 + pi_y2_a5_proc_1 >= 0
 c18: pi_p_a6_a3 - pi_p_a5_a6 + pi_p_a6_a9 - pi_d_a0_a6_proc_0
      + pi_d_a6_a0_proc_0 - pi_d_a1_a6_proc_0 + pi_d_a6_a1_proc_0
      - pi_d_a2_a6_proc_0 + pi_d_a6_a2_proc_0 - pi_d_a4_a6_proc_0
      + pi_d_a6_a4_proc_0 - pi_d_a5_a6_proc_0 + pi_d_a6_a5_proc_0
      + pi_d_a6_a7_proc_0 - pi_d_a7_a6_proc_0 + pi_d_a6_a8_proc_0
      - pi_d_a8_a6_proc_0 + pi_d_a6_a9_proc_0 - pi_d_a9_a6_proc_0
      + pi_d_a6_a10_proc_0 - pi_d_a10_a6_proc_0 + pi_d_a6_a11_proc_0
      - pi_d_a11_a6_proc_0 + pi_d_a6_a14_proc_0 - pi_d_a14_a6_proc_0 >= 0
 c19: 953 pi_p_a6_a3 + 953 pi_p_a6_a9 + 953 pi_p_a6_a6 + 953 pi_d_a6_a0_proc_0
      + 953 pi_d_a6_a1_proc_0 + 953 pi_d_a6_a2_proc_0 + 953 pi_d_a6_a4_proc_0
      + 953 pi_d_a6_a5_proc_0 + 953 pi_d_a6_a7_proc_0 + 953 pi_d_a6_a8_proc_0
      + 953 pi_d_a6_a9_proc_0 + 953 pi_d_a6_a10_proc_0 + 953 pi_d_a6_a11_proc_0
      + 953 pi_d_a6_a14_proc_0 + pi_y1_a6 + pi_y2_a6_proc_0 >= 0
 c20: pi_p_a7_a0 - pi_p_a8_a7 - pi_p_a14_a7 + pi_p_a7_a9 - pi_d_a0_a7_proc_0
      - pi_d_a0_a7_proc_1 + pi_d_a7_a0_proc_0 + pi_d_a7_a0_proc_1
      - pi_d_a1_a7_proc_0 - pi_d_a1_a7_proc_1 + pi_d_a7_a1_proc_0
      + pi_d_a7_a1_proc_1 - pi_d_a2_a7_proc_0 - pi_d_a2_a7_proc_1
      + pi_d_a7_a2_proc_0 + pi_d_a7_a2_proc_1 - pi_d_a3_a7_proc_1
      + pi_d_a7_a3_proc_1 - pi_d_a4_a7_proc_0 + pi_d_a7_a4_proc_0
      - pi_d_a5_a7_proc_0 - pi_d_a5_a7_proc_1 + pi_d_a7_a5_proc_0
      + pi_d_a7_a5_proc_1 - pi_d_a6_a7_proc_0 + pi_d_a7_a6_proc_0
      + pi_d_a7_a8_proc_0 + pi_d_a7_a8_proc_1 - pi_d_a8_a7_proc_0
      - pi_d_a8_a7_proc_1 + pi_d_a7_a9_proc_0 - pi_d_a9_a7_proc_0
      + pi_d_a7_a10_proc_0 + pi_d_a7_a10_proc_1 - pi_d_a10_a7_proc_0
      - pi_d_a10_a7_proc_1 + pi_d_a7_a11_proc_0 + pi_d_a7_a11_proc_1
      - pi_d_a11_a7_proc_0 - pi_d_a11_a7_proc_1 + pi_d_a7_a12_proc_1
      - pi_d_a12_a7_proc_1 + pi_d_a7_a13_proc_1 - pi_d_a13_a7_proc_1
      + pi_d_a7_a14_proc_0 - pi_d_a14_a7_proc_0 >= 0
 c21: 901 pi_p_a7_a0 + 901 pi_p_a7_a9 + 901 pi_d_a7_a0_proc_0
      + 901 pi_d_a7_a1_proc_0 + 901 pi_d_a7_a2_proc_0 + 901 pi_d_a7_a4_proc_0
      + 901 pi_d_a7_a5_proc_0 + 901 pi_d_a7_a6_proc_0 + 901 pi_d_a7_a8_proc_0
      + 901 pi_d_a7_a9_proc_0 + 901 pi_d_a7_a10_proc_0 + 901 pi_d_a7_a11_proc_0
      + 901 pi_d_a7_a14_proc_0 + pi_y1_a7 + pi_y2_a7_proc_0 >= 0
 c22: 947 pi_p_a7_a0 + 947 pi_p_a7_a9 + 947 pi_d_a7_a0_proc_1
      + 947 pi_d_a7_a1_proc_1 + 947 pi_d_a7_a2_proc_1 + 947 pi_d_a7_a3_proc_1
      + 947 pi_d_a7_a5_proc_1 + 947 pi_d_a7_a8_proc_1 + 947 pi_d_a7_a10_proc_1
      + 947 pi_d_a7_a11_proc_1 + 947 pi_d_a7_a12_proc_1 + 947 pi_d_a7_a13_proc_1
      + pi_y1_a7 + pi_y2_a7_proc_1 >= 0
 c23: pi_p_a8_a7 - pi_p_a10_a8 - pi_d_a0_a8_proc_0 - pi_d_a0_a8_proc_1
      + pi_d_a8_a0_proc_0 + pi_d_a8_a0_proc_1 - pi_d_a1_a8_proc_0
      - pi_d_a1_a8_proc_1 + pi_d_a8_a1_proc_0 + pi_d_a8_a1_proc_1
      - pi_d_a2_a8_proc_0 - pi_d_a2_a8_proc_1 + pi_d_a8_a2_proc_0
      + pi_d_a8_a2_proc_1 - pi_d_a3_a8_proc_1 + pi_d_a8_a3_proc_1
      - pi_d_a4_a8_proc_0 + pi_d_a8_a4_proc_0 - pi_d_a5_a8_proc_0
      - pi_d_a5_a8_proc_1 + pi_d_a8_a5_proc_0 + pi_d_a8_a5_proc_1
      - pi_d_a6_a8_proc_0 + pi_d_a8_a6_proc_0 - pi_d_a7_a8_proc_0
      - pi_d_a7_a8_proc_1 + pi_d_a8_a7_proc_0 + pi_d_a8_a7_proc_1
      + pi_d_a8_a9_proc_0 - pi_d_a9_a8_proc_0 + pi_d_a8_a10_proc_0
      + pi_d_a8_a10_proc_1 - pi_d_a10_a8_proc_0 - pi_d_a10_a8_proc_1
      + pi_d_a8_a11_proc_0 + pi_d_a8_a11_proc_1 - pi_d_a11_a8_proc_0
      - pi_d_a11_a8_proc_1 + pi_d_a8_a12_proc_1 - pi_d_a12_a8_proc_1
      + pi_d_a8_a13_proc_1 - pi_d_a13_a8_proc_1 + pi_d_a8_a14_proc_0
      - pi_d_a14_a8_proc_0 >= 0
 c24: 1090 pi_p_a8_a7 + 1090 pi_d_a8_a0_proc_0 + 1090 pi_d_a8_a1_proc_0
      + 1090 pi_d_a8_a2_proc_0 + 1090 pi_d_a8_a4_proc_0 + 1090 pi_d_a8_a5_proc_0
      + 1090 pi_d_a8_a6_proc_0 + 1090 pi_d_a8_a7_proc_0 + 1090 pi_d_a8_a9_proc_0
      + 1090 pi_d_a8_a10_proc_0 + 1090 pi_d_a8_a11_proc_0
      + 1090 pi_d_a8_a14_proc_0 + pi_y1_a8 + pi_y2_a8_proc_0 >= 0
 c25: 899 pi_p_a8_a7 + 899 pi_d_a8_a0_proc_1 + 899 pi_d_a8_a1_proc_1
      + 899 pi_d_a8_a2_proc_1 + 899 pi_d_a8_a3_proc_1 + 899 pi_d_a8_a5_proc_1
      + 899 pi_d_a8_a7_proc_1 + 899 pi_d_a8_a10_proc_1 + 899 pi_d_a8_a11_proc_1
      + 899 pi_d_a8_a12_proc_1 + 899 pi_d_a8_a13_proc_1 + pi_y1_a8
      + pi_y2_a8_proc_1 >= 0
 c26: - pi_p_a3_a9 - pi_p_a6_a9 - pi_p_a7_a9 - pi_d_a0_a9_proc_0
      + pi_d_a9_a0_proc_0 - pi_d_a1_a9_proc_0 + pi_d_a9_a1_proc_0
      - pi_d_a2_a9_proc_0 + pi_d_a9_a2_proc_0 - pi_d_a4_a9_proc_0
      + pi_d_a9_a4_proc_0 - pi_d_a5_a9_proc_0 + pi_d_a9_a5_proc_0
      - pi_d_a6_a9_proc_0 + pi_d_a9_a6_proc_0 - pi_d_a7_a9_proc_0
      + pi_d_a9_a7_proc_0 - pi_d_a8_a9_proc_0 + pi_d_a9_a8_proc_0
      + pi_d_a9_a10_proc_0 - pi_d_a10_a9_proc_0 + pi_d_a9_a11_proc_0
      - pi_d_a11_a9_proc_0 + pi_d_a9_a14_proc_0 - pi_d_a14_a9_proc_0 >= 0
 c27: 855 pi_d_a9_a0_proc_0 + 855 pi_d_a9_a1_proc_0 + 855 pi_d_a9_a2_proc_0
      + 855 pi_d_a9_a4_proc_0 + 855 pi_d_a9_a5_proc_0 + 855 pi_d_a9_a6_proc_0
      + 855 pi_d_a9_a7_proc_0 + 855 pi_d_a9_a8_proc_0 + 855 pi_d_a9_a10_proc_0
      + 855 pi_d_a9_a11_proc_0 + 855 pi_d_a9_a14_proc_0 + pi_y1_a9
      + pi_y2_a9_proc_0 >= 0
 c28: pi_p_a10_a8 - pi_p_a14_a10 + pi_p_a10_a11 - pi_d_a0_a10_proc_0
      - pi_d_a0_a10_proc_1 + pi_d_a10_a0_proc_0 + pi_d_a10_a0_proc_1
      - pi_d_a1_a10_proc_0 - pi_d_a1_a10_proc_1 + pi_d_a10_a1_proc_0
      + pi_d_a10_a1_proc_1 - pi_d_a2_a10_proc_0 - pi_d_a2_a10_proc_1
      + pi_d_a10_a2_proc_0 + pi_d_a10_a2_proc_1 - pi_d_a3_a10_proc_1
      + pi_d_a10_a3_proc_1 - pi_d_a4_a10_proc_0 + pi_d_a10_a4_proc_0
      - pi_d_a5_a10_proc_0 - pi_d_a5_a10_proc_1 + pi_d_a10_a5_proc_0
      + pi_d_a10_a5_proc_1 - pi_d_a6_a10_proc_0 + pi_d_a10_a6_proc_0
      - pi_d_a7_a10_proc_0 - pi_d_a7_a10_proc_1 + pi_d_a10_a7_proc_0
      + pi_d_a10_a7_proc_1 - pi_d_a8_a10_proc_0 - pi_d_a8_a10_proc_1
      + pi_d_a10_a8_proc_0 + pi_d_a10_a8_proc_1 - pi_d_a9_a10_proc_0
      + pi_d_a10_a9_proc_0 + pi_d_a10_a11_proc_0 + pi_d_a10_a11_proc_1
      - pi_d_a11_a10_proc_0 - pi_d_a11_a10_proc_1 + pi_d_a10_a12_proc_1
      - pi_d_a12_a10_proc_1 + pi_d_a10_a13_proc_1 - pi_d_a13_a10_proc_1
      + pi_d_a10_a14_proc_0 - pi_d_a14_a10_proc_0 >= 0
 c29: 316 pi_p_a10_a8 + 316 pi_p_a10_a11 + 316 pi_d_a10_a0_proc_0
      + 316 pi_d_a10_a1_proc_0 + 316 pi_d_a10_a2_proc_0 + 316 pi_d_a10_a4_proc_0
      + 316 pi_d_a10_a5_proc_0 + 316 pi_d_a10_a6_proc_0 + 316 pi_d_a10_a7_proc_0
      + 316 pi_d_a10_a8_proc_0 + 316 pi_d_a10_a9_proc_0
      + 316 pi_d_a10_a11_proc_0 + 316 pi_d_a10_a14_proc_0 + pi_y1_a10
      + pi_y2_a10_proc_0 >= 0
 c30: 1191 pi_p_a10_a8 + 1191 pi_p_a10_a11 + 1191 pi_d_a10_a0_proc_1
      + 1191 pi_d_a10_a1_proc_1 + 1191 pi_d_a10_a2_proc_1
      + 1191 pi_d_a10_a3_proc_1 + 1191 pi_d_a10_a5_proc_1
      + 1191 pi_d_a10_a7_proc_1 + 1191 pi_d_a10_a8_proc_1
      + 1191 pi_d_a10_a11_proc_1 + 1191 pi_d_a10_a12_proc_1
      + 1191 pi_d_a10_a13_proc_1 + pi_y1_a10 + pi_y2_a10_proc_1 >= 0
 c31: - pi_p_a2_a11 - pi_p_a10_a11 + pi_p_a11_a1 - pi_d_a0_a11_proc_0
      - pi_d_a0_a11_proc_1 + pi_d_a11_a0_proc_0 + pi_d_a11_a0_proc_1
      - pi_d_a1_a11_proc_0 - pi_d_a1_a11_proc_1 + pi_d_a11_a1_proc_0
      + pi_d_a11_a1_proc_1 - pi_d_a2_a11_proc_0 - pi_d_a2_a11_proc_1
      + pi_d_a11_a2_proc_0 + pi_d_a11_a2_proc_1 - pi_d_a3_a11_proc_1
      + pi_d_a11_a3_proc_1 - pi_d_a4_a11_proc_0 + pi_d_a11_a4_proc_0
      - pi_d_a5_a11_proc_0 - pi_d_a5_a11_proc_1 + pi_d_a11_a5_proc_0
      + pi_d_a11_a5_proc_1 - pi_d_a6_a11_proc_0 + pi_d_a11_a6_proc_0
      - pi_d_a7_a11_proc_0 - pi_d_a7_a11_proc_1 + pi_d_a11_a7_proc_0
      + pi_d_a11_a7_proc_1 - pi_d_a8_a11_proc_0 - pi_d_a8_a11_proc_1
      + pi_d_a11_a8_proc_0 + pi_d_a11_a8_proc_1 - pi_d_a9_a11_proc_0
      + pi_d_a11_a9_proc_0 - pi_d_a10_a11_proc_0 - pi_d_a10_a11_proc_1
      + pi_d_a11_a10_proc_0 + pi_d_a11_a10_proc_1 + pi_d_a11_a12_proc_1
      - pi_d_a12_a11_proc_1 + pi_d_a11_a13_proc_1 - pi_d_a13_a11_proc_1
      + pi_d_a11_a14_proc_0 - pi_d_a14_a11_proc_0 >= 0
 c32: 492 pi_p_a11_a1 + 492 pi_d_a11_a0_proc_0 + 492 pi_d_a11_a1_proc_0
      + 492 pi_d_a11_a2_proc_0 + 492 pi_d_a11_a4_proc_0 + 492 pi_d_a11_a5_proc_0
      + 492 pi_d_a11_a6_proc_0 + 492 pi_d_a11_a7_proc_0 + 492 pi_d_a11_a8_proc_0
      + 492 pi_d_a11_a9_proc_0 + 492 pi_d_a11_a10_proc_0
      + 492 pi_d_a11_a14_proc_0 + pi_y1_a11 + pi_y2_a11_proc_0 >= 0
 c33: 593 pi_p_a11_a1 + 593 pi_d_a11_a0_proc_1 + 593 pi_d_a11_a1_proc_1
      + 593 pi_d_a11_a2_proc_1 + 593 pi_d_a11_a3_proc_1 + 593 pi_d_a11_a5_proc_1
      + 593 pi_d_a11_a7_proc_1 + 593 pi_d_a11_a8_proc_1
      + 593 pi_d_a11_a10_proc_1 + 593 pi_d_a11_a12_proc_1
      + 593 pi_d_a11_a13_proc_1 + pi_y1_a11 + pi_y2_a11_proc_1 >= 0
 c34: - pi_p_a0_a12 + pi_p_a12_a0 - pi_d_a0_a12_proc_1 + pi_d_a12_a0_proc_1
      - pi_d_a1_a12_proc_1 + pi_d_a12_a1_proc_1 - pi_d_a2_a12_proc_1
      + pi_d_a12_a2_proc_1 - pi_d_a3_a12_proc_1 + pi_d_a12_a3_proc_1
      - pi_d_a5_a12_proc_1 + pi_d_a12_a5_proc_1 - pi_d_a7_a12_proc_1
      + pi_d_a12_a7_proc_1 - pi_d_a8_a12_proc_1 + pi_d_a12_a8_proc_1
      - pi_d_a10_a12_proc_1 + pi_d_a12_a10_proc_1 - pi_d_a11_a12_proc_1
      + pi_d_a12_a11_proc_1 + pi_d_a12_a13_proc_1 - pi_d_a13_a12_proc_1 >= 0
 c35: 733 pi_p_a12_a0 + 733 pi_d_a12_a0_proc_1 + 733 pi_d_a12_a1_proc_1
      + 733 pi_d_a12_a2_proc_1 + 733 pi_d_a12_a3_proc_1 + 733 pi_d_a12_a5_proc_1
      + 733 pi_d_a12_a7_proc_1 + 733 pi_d_a12_a8_proc_1
      + 733 pi_d_a12_a10_proc_1 + 733 pi_d_a12_a11_proc_1
      + 733 pi_d_a12_a13_proc_1 + pi_y1_a12 + pi_y2_a12_proc_1 >= 0
 c36: pi_p_a13_a4 - pi_p_a5_a13 - pi_d_a0_a13_proc_1 + pi_d_a13_a0_proc_1
      - pi_d_a1_a13_proc_1 + pi_d_a13_a1_proc_1 - pi_d_a2_a13_proc_1
      + pi_d_a13_a2_proc_1 - pi_d_a3_a13_proc_1 + pi_d_a13_a3_proc_1
      - pi_d_a5_a13_proc_1 + pi_d_a13_a5_proc_1 - pi_d_a7_a13_proc_1
      + pi_d_a13_a7_proc_1 - pi_d_a8_a13_proc_1 + pi_d_a13_a8_proc_1
      - pi_d_a10_a13_proc_1 + pi_d_a13_a10_proc_1 - pi_d_a11_a13_proc_1
      + pi_d_a13_a11_proc_1 - pi_d_a12_a13_proc_1 + pi_d_a13_a12_proc_1 >= 0
 c37: 605 pi_p_a13_a4 + 605 pi_d_a13_a0_proc_1 + 605 pi_d_a13_a1_proc_1
      + 605 pi_d_a13_a2_proc_1 + 605 pi_d_a13_a3_proc_1 + 605 pi_d_a13_a5_proc_1
      + 605 pi_d_a13_a7_proc_1 + 605 pi_d_a13_a8_proc_1
      + 605 pi_d_a13_a10_proc_1 + 605 pi_d_a13_a11_proc_1
      + 605 pi_d_a13_a12_proc_1 + pi_y1_a13 + pi_y2_a13_proc_1 >= 0
 c38: pi_p_a14_a10 + pi_p_a14_a7 - pi_d_a0_a14_proc_0 + pi_d_a14_a0_proc_0
      - pi_d_a1_a14_proc_0 + pi_d_a14_a1_proc_0 - pi_d_a2_a14_proc_0
      + pi_d_a14_a2_proc_0 - pi_d_a4_a14_proc_0 + pi_d_a14_a4_proc_0
      - pi_d_a5_a14_proc_0 + pi_d_a14_a5_proc_0 - pi_d_a6_a14_proc_0
      + pi_d_a14_a6_proc_0 - pi_d_a7_a14_proc_0 + pi_d_a14_a7_proc_0
      - pi_d_a8_a14_proc_0 + pi_d_a14_a8_proc_0 - pi_d_a9_a14_proc_0
      + pi_d_a14_a9_proc_0 - pi_d_a10_a14_proc_0 + pi_d_a14_a10_proc_0
      - pi_d_a11_a14_proc_0 + pi_d_a14_a11_proc_0 >= 0
 c39: 906 pi_p_a14_a10 + 906 pi_p_a14_a7 + 906 pi_p_a14_a14
      + 906 pi_d_a14_a0_proc_0 + 906 pi_d_a14_a1_proc_0 + 906 pi_d_a14_a2_proc_0
      + 906 pi_d_a14_a4_proc_0 + 906 pi_d_a14_a5_proc_0 + 906 pi_d_a14_a6_proc_0
      + 906 pi_d_a14_a7_proc_0 + 906 pi_d_a14_a8_proc_0 + 906 pi_d_a14_a9_proc_0
      + 906 pi_d_a14_a10_proc_0 + 906 pi_d_a14_a11_proc_0 + pi_y1_a14
      + pi_y2_a14_proc_0 >= 0

Bounds
       pi_y1_a0 Free
       pi_y1_a1 Free
       pi_y1_a2 Free
       pi_y1_a3 Free
       pi_y1_a4 Free
       pi_y1_a5 Free
       pi_y1_a6 Free
       pi_y1_a7 Free
       pi_y1_a8 Free
       pi_y1_a9 Free
       pi_y1_a10 Free
       pi_y1_a11 Free
       pi_y1_a12 Free
       pi_y1_a13 Free
       pi_y1_a14 Free
End
