benchmark/results/graph__15-1000-0.10-02_12/graph__15-1000-0.10-02_12_QuintonOs_Benders_sub.txt
solution for: Quinton Bounded Benders_dual_sub
objective: 0.000140805
status: OPTIMAL_SOLUTION(2)
pi_p_a0_a2=0.000
pi_p_a3_a1=0.000
pi_p_a2_a5=0.000
pi_p_a6_a3=0.000
pi_p_a7_a0=0.000
pi_p_a5_a6=0.000
pi_d_a1_a12_proc_1=0.000
pi_d_a12_a7_proc_1=0.000
pi_y1_a0=-0.148
pi_y1_a1=-0.089
pi_y1_a2=-0.141
pi_y1_a3=-0.180
pi_y1_a5=-0.071
pi_y1_a6=-0.134
pi_y1_a7=-0.133
pi_y1_a12=-0.103
pi_y2_a0_proc_0=0.007
pi_y2_a1_proc_0=0.089
pi_y2_a7_proc_0=0.006
